<?xml version = "1.0" encoding="UTF-8" standalone="yes"?>
<CPLEXSolution version="1.2">
 <header
   problemName="IloCplex"
   solutionName="p0"
   solutionIndex="-1"
   objectiveValue="0"
   solutionTypeValue="3"
   solutionTypeString="primal"
   solutionStatusValue="127"
   solutionStatusString="integer feasible solution"
   solutionMethodString="mip"
   primalFeasible="0"
   dualFeasible="0"
   writeLevel="3"/>
 <quality
   epInt="1.0000000000000001e-05"
   epRHS="9.9999999999999995e-07"
   maxIntInfeas="0"
   maxPrimalInfeas="0"
   maxX="668"
   maxSlack="568"/>
 <variables>
  <variable index="23" value="1"/>
  <variable index="131" value="1"/>
  <variable index="301" value="1"/>
  <variable index="310" value="1"/>
  <variable index="465" value="1"/>
  <variable index="597" value="1"/>
  <variable index="618" value="1"/>
  <variable index="770" value="1"/>
  <variable index="859" value="1"/>
  <variable index="925" value="1"/>
  <variable index="1087" value="1"/>
  <variable index="1194" value="1"/>
  <variable index="1241" value="1"/>
  <variable index="1330" value="1"/>
  <variable index="1456" value="1"/>
  <variable index="1564" value="1"/>
  <variable index="1692" value="1"/>
  <variable index="1793" value="1"/>
  <variable index="1890" value="1"/>
  <variable index="1971" value="1"/>
  <variable index="2109" value="1"/>
  <variable index="2138" value="1"/>
  <variable index="2273" value="1"/>
  <variable index="2408" value="1"/>
  <variable index="2442" value="1"/>
  <variable index="2515" value="1"/>
  <variable index="2613" value="1"/>
  <variable index="2780" value="1"/>
  <variable index="2868" value="1"/>
  <variable index="2977" value="1"/>
  <variable index="3021" value="1"/>
  <variable index="3172" value="1"/>
  <variable index="3234" value="1"/>
  <variable index="3402" value="1"/>
  <variable index="3451" value="1"/>
  <variable index="3567" value="1"/>
  <variable index="3688" value="1"/>
  <variable index="3749" value="1"/>
  <variable index="3878" value="1"/>
  <variable index="4000" value="1"/>
  <variable index="4061" value="1"/>
  <variable index="4129" value="1"/>
  <variable index="4269" value="1"/>
  <variable index="4404" value="1"/>
  <variable index="4489" value="1"/>
  <variable index="4535" value="1"/>
  <variable index="4627" value="1"/>
  <variable index="4781" value="1"/>
  <variable index="4814" value="1"/>
  <variable index="4939" value="1"/>
  <variable index="5053" value="1"/>
  <variable index="5186" value="1"/>
  <variable index="5291" value="1"/>
  <variable index="5346" value="1"/>
  <variable index="5462" value="1"/>
  <variable index="5582" value="1"/>
  <variable index="5636" value="1"/>
  <variable index="5798" value="1"/>
  <variable index="5844" value="1"/>
  <variable index="5966" value="1"/>
  <variable index="6075" value="1"/>
  <variable index="6117" value="1"/>
  <variable index="6233" value="1"/>
  <variable index="6384" value="1"/>
  <variable index="6457" value="1"/>
  <variable index="6522" value="1"/>
  <variable index="6696" value="1"/>
  <variable index="6750" value="1"/>
  <variable index="6863" value="1"/>
  <variable index="6911" value="1"/>
  <variable index="7058" value="1"/>
  <variable index="7174" value="1"/>
  <variable index="7252" value="1"/>
  <variable index="7337" value="1"/>
  <variable index="7454" value="1"/>
  <variable index="7595" value="1"/>
  <variable index="7705" value="1"/>
  <variable index="7745" value="1"/>
  <variable index="7847" value="1"/>
  <variable index="7940" value="1"/>
  <variable index="8048" value="1"/>
  <variable index="8179" value="1"/>
  <variable index="8255" value="1"/>
  <variable index="8332" value="1"/>
  <variable index="8420" value="1"/>
  <variable index="8528" value="1"/>
  <variable index="8707" value="1"/>
  <variable index="8785" value="1"/>
  <variable index="8883" value="1"/>
  <variable index="9006" value="1"/>
  <variable index="9019" value="1"/>
  <variable index="9126" value="1"/>
  <variable index="9303" value="1"/>
  <variable index="9343" value="1"/>
  <variable index="9416" value="1"/>
  <variable index="9560" value="1"/>
  <variable index="9699" value="1"/>
  <variable index="9712" value="1"/>
  <variable index="9824" value="1"/>
  <variable index="9976" value="1"/>
  <variable index="10020" value="668"/>
 </variables>
</CPLEXSolution>
